
--- Job DIETER.gms Start 01/09/19 11:21:10 25.1.2 r67455 WEX-WEI x86 64bit/MS Windows
GAMS 25.1.2   Copyright (C) 1987-2018 GAMS Development. All rights reserved
Licensee: Medium MUD - 10 User License                   S180308:0349AO-GEN
          Deutsches Institut fuer Wirtschaftsforschung DIW, AbteilungDC3975
          License for teaching and research at degree granting institutions
          License Admin: Claudia Kemfert, bbibra@diw.de                    
--- Starting compilation
--- DIETER.gms(116) 2 Mb
--- . dataload.gms(404) 2 Mb
--- call gdxxrw data_input.xlsx @temp.tmp o=Data_input maxdupeerrors=100

GDXXRW           25.1.2 r67455 Released Aug  1, 2018 VS8 x86 32bit/MS Windows 
Input file : C:\Users\cguenther\Documents\GitHub\prosumage\Code\Prosumage_Opt\Dieter_Module\DIETER_PROSUMOD_MCP\data_input.xlsx
Output file: C:\Users\cguenther\Documents\GitHub\prosumage\Code\Prosumage_Opt\Dieter_Module\DIETER_PROSUMOD_MCP\Data_input.gdx
Total time = 1498 Ms
--- . dataload.gms(406) 2 Mb
--- GDXin=C:\Users\cguenther\Documents\GitHub\prosumage\Code\Prosumage_Opt\Dieter_Module\DIETER_PROSUMOD_MCP\Data_input.gdx
--- . dataload.gms(452) 3 Mb
--- call gdxxrw time_series.xlsx @temp2.tmp o=time_series

GDXXRW           25.1.2 r67455 Released Aug  1, 2018 VS8 x86 32bit/MS Windows 
Input file : C:\Users\cguenther\Documents\GitHub\prosumage\Code\Prosumage_Opt\Dieter_Module\DIETER_PROSUMOD_MCP\time_series.xlsx
Output file: C:\Users\cguenther\Documents\GitHub\prosumage\Code\Prosumage_Opt\Dieter_Module\DIETER_PROSUMOD_MCP\time_series.gdx
Total time = 9609 Ms
--- . dataload.gms(453) 3 Mb
--- GDXin=C:\Users\cguenther\Documents\GitHub\prosumage\Code\Prosumage_Opt\Dieter_Module\DIETER_PROSUMOD_MCP\time_series.gdx
--- . dataload.gms(584) 4 Mb
--- DIETER.gms(161) 4 Mb
--- . model.gms(790) 4 Mb
--- DIETER.gms(194) 4 Mb
--- . fix.gms(239) 4 Mb
--- DIETER.gms(195) 4 Mb
--- . scenario.gms(67) 4 Mb
--- DIETER.gms(211) 4 Mb
--- . report.gms(797) 4 Mb
--- DIETER.gms(228) 4 Mb
--- Starting execution: elapsed 0:00:11.935
--- DIETER.gms(1878) 13 Mb
--- Generating LP model DIETER
--- DIETER.gms(1879) 28 Mb
---   44,003 rows  75,989 columns  172,900 non-zeroes
--- Executing CPLEX: elapsed 0:00:13.191

IBM ILOG CPLEX   25.1.2 r67455 Released Aug  1, 2018 WEI x86 64bit/MS Windows 
--- GAMS/Cplex licensed for continuous and discrete problems.
Cplex 12.8.0.0

Reading parameter(s) from "C:\Users\cguenther\Documents\GitHub\prosumage\Code\Prosumage_Opt\Dieter_Module\DIETER_PROSUMOD_MCP\cplex.opt"
>>  lpmethod 4
>>  threads 4
>>  epgap 1e-3
Finished reading from "C:\Users\cguenther\Documents\GitHub\prosumage\Code\Prosumage_Opt\Dieter_Module\DIETER_PROSUMOD_MCP\cplex.opt"
Reading data...
Starting Cplex...
Space for names approximately 3.52 Mb
Use option 'names no' to turn use of names off
CPXPARAM_Advance                                 0
CPXPARAM_TimeLimit                               10000000
CPXPARAM_LPMethod                                4
CPXPARAM_Threads                                 4
CPXPARAM_Parallel                                1
CPXPARAM_Tune_TimeLimit                          2000000
CPXPARAM_MIP_Tolerances_MIPGap                   0.001
CPXPARAM_Barrier_Limits_Iteration                2000000000
Tried aggregator 1 time.
LP Presolve eliminated 30283 rows and 47632 columns.
Aggregator did 2062 substitutions.
Reduced LP has 11658 rows, 26295 columns, and 58690 nonzeros.
Presolve time = 0.06 sec. (58.10 ticks)
Parallel mode: using up to 4 threads for barrier.

***NOTE: Found 3 dense columns.

Number of nonzeros in lower triangle of A*A' = 45627
Using Approximate Minimum Degree ordering
Total time for automatic ordering = 0.00 sec. (3.76 ticks)
Summary statistics for Cholesky factor:
  Threads                   = 4
  Rows in Factor            = 11661
  Integer space required    = 26963
  Total non-zeros in factor = 141935
  Total FP ops to factor    = 2179745
 Itn      Primal Obj        Dual Obj  Prim Inf Upper Inf  Dual Inf Inf Ratio
   0   1.2925831e+10  -1.5963637e+11  2.04e+08  1.34e+08  7.94e+06  1.00e+00
   1   1.1578713e+10  -4.7011264e+10  1.21e+08  7.94e+07  2.66e+06  1.70e-06
   2   1.0837390e+10  -1.8175058e+10  9.20e+07  6.05e+07  1.27e+06  1.91e-06
   3   9.2102916e+09   2.5224053e+09  1.85e+07  1.22e+07  2.97e+05  8.99e-06
   4   8.4543118e+09   6.0662655e+09  7.04e+06  4.63e+06  1.04e+05  2.44e-05
   5   8.0501207e+09   7.2499494e+09  2.83e+06  1.86e+06  3.22e+04  7.30e-05
   6   7.8824326e+09   7.4933694e+09  1.38e+06  9.04e+05  1.57e+04  1.47e-04
   7   7.8115356e+09   7.5810376e+09  7.25e+05  4.77e+05  9.92e+03  2.30e-04
   8   7.7783643e+09   7.6417726e+09  4.15e+05  2.73e+05  5.98e+03  3.78e-04
   9   7.7532070e+09   7.6779626e+09  1.85e+05  1.22e+05  3.61e+03  6.25e-04
  10   7.7420242e+09   7.7114259e+09  9.40e+04  6.18e+04  1.31e+03  1.76e-03
  11   7.7354276e+09   7.7227734e+09  4.54e+04  2.99e+04  4.77e+02  4.75e-03
  12   7.7321265e+09   7.7271003e+09  2.16e+04  1.42e+04  1.52e+02  1.38e-02
  13   7.7313557e+09   7.7276298e+09  1.58e+04  1.04e+04  1.15e+02  1.76e-02
  14   7.7302469e+09   7.7281542e+09  7.19e+03  4.73e+03  7.92e+01  2.47e-02
  15   7.7299299e+09   7.7287210e+09  4.35e+03  2.86e+03  4.44e+01  4.41e-02
  16   7.7296927e+09   7.7288786e+09  2.34e+03  1.54e+03  3.44e+01  5.70e-02
  17   7.7296353e+09   7.7289476e+09  1.79e+03  1.18e+03  3.02e+01  6.53e-02
  18   7.7295888e+09   7.7290191e+09  1.33e+03  8.76e+02  2.59e+01  7.67e-02
  19   7.7295772e+09   7.7290383e+09  1.21e+03  7.95e+02  2.48e+01  8.04e-02
  20   7.7295593e+09   7.7291057e+09  1.03e+03  6.77e+02  2.08e+01  9.70e-02
  21   7.7294995e+09   7.7291181e+09  4.15e+02  2.73e+02  2.01e+01  1.01e-01
  22   7.7294868e+09   7.7292346e+09  2.76e+02  1.81e+02  1.33e+01  1.60e-01
  23   7.7294659e+09   7.7292498e+09  1.06e+02  6.94e+01  1.23e+01  1.73e-01
  24   7.7294567e+09   7.7292923e+09  2.66e+01  1.75e+01  9.77e+00  2.25e-01
  25   7.7294542e+09   7.7293076e+09  1.85e+01  1.21e+01  8.81e+00  2.52e-01
  26   7.7294527e+09   7.7293276e+09  1.52e+01  1.00e+01  7.54e+00  3.00e-01
  27   7.7294518e+09   7.7293412e+09  1.35e+01  8.87e+00  6.66e+00  3.44e-01
  28   7.7294512e+09   7.7293511e+09  1.27e+01  8.37e+00  6.01e+00  3.85e-01
  29   7.7294479e+09   7.7293705e+09  9.83e+00  6.47e+00  4.64e+00  5.01e-01
  30   7.7294468e+09   7.7293915e+09  8.40e+00  5.52e+00  3.24e+00  7.47e-01
  31   7.7294451e+09   7.7294218e+09  6.83e+00  4.49e+00  1.13e+00  2.52e+00
  32   7.7294389e+09   7.7294305e+09  2.69e+00  1.77e+00  3.74e-01  7.36e+00
  33   7.7294377e+09   7.7294330e+09  1.94e+00  1.27e+00  1.61e-01  1.61e+01
  34   7.7294367e+09   7.7294339e+09  1.26e+00  8.26e-01  8.11e-02  2.95e+01
  35   7.7294358e+09   7.7294344e+09  5.98e-01  3.93e-01  4.05e-02  5.57e+01
  36   7.7294352e+09   7.7294350e+09  1.26e-01  8.28e-02  3.35e-03  6.66e+02
  37   7.7294351e+09   7.7294350e+09  9.16e-03  6.02e-03  5.04e-04  4.30e+03
  38   7.7294351e+09   7.7294351e+09  4.86e-04  3.15e-04  2.53e-05  8.55e+04
Barrier time = 0.50 sec. (356.94 ticks)
Parallel mode: deterministic, using up to 4 threads for concurrent optimization.

Dual crossover.
  Dual:  Fixing 444 variables.
      443 DMoves:  Infeasibility  6.06037442e-12  Objective  7.72943505e+09
        0 DMoves:  Infeasibility  6.35902442e-12  Objective  7.72943505e+09
  Dual:  Pushed 96, exchanged 348.
  Primal:  Fixing 1754 variables.
     1753 PMoves:  Infeasibility  6.54012292e-05  Objective  7.72943505e+09
      543 PMoves:  Infeasibility  0.00000000e+00  Objective  7.72943505e+09
        0 PMoves:  Infeasibility  1.70121112e-11  Objective  7.72943505e+09
  Primal:  Pushed 1191, exchanged 563.

Iteration log . . .
Iteration:     1   Dual objective     =    7729435050.778191

Dual simplex solved model.

Total crossover time = 0.11 sec. (86.44 ticks)

Total time on 4 threads = 0.67 sec. (503.53 ticks)
LP status(1): optimal
Cplex Time: 0.69sec (det. 503.65 ticks)

Optimal solution found.
Simplex iterations after crossover:  7

Objective :  7729435050.778671

--- Restarting execution
--- DIETER.gms(1879) 14 Mb
--- Reading solution for model DIETER
--- DIETER.gms(1879) 20 Mb
--- Executing after solve: elapsed 0:00:15.176
--- DIETER.gms(2690) 23 Mb
--- GDX File C:\Users\cguenther\Documents\GitHub\prosumage\Code\Prosumage_Opt\Dieter_Module\DIETER_PROSUMOD_MCP\results.gdx
--- GDX File C:\Users\cguenther\Documents\GitHub\prosumage\Code\Prosumage_Opt\Dieter_Module\DIETER_PROSUMOD_MCP\test.gdx
*** Status: Normal completion
--- Job DIETER.gms Stop 01/09/19 11:21:26 elapsed 0:00:15.392
